; asynctest :: corpus-study/repo_src/asynctest/asynctest/mock.py :: wait_for at wait_for:484 :: naive encoding (verdict: unsat)
; Generated by snf-pipeline (encoder.py) -- run with any
; SMT-LIB2-compliant solver, e.g. `z3 asynctest__corpus-study_repo_src_asynctest_asynctest_mock.py__waitfor_wait_for_L484__naive.smt2`
; benchmark generated from python API
(set-info :status unknown)
(declare-fun timeout_fires () Bool)
(declare-fun cleanup_ran () Bool)
(assert
 (= timeout_fires false))
(assert
 (let (($x27 (not cleanup_ran)))
(and timeout_fires $x27)))
(check-sat)
